WARNING: for repeatability, setting FPU to use double precision
============================[ Problem Statistics ]=============================
|                                                                             |
|  Number of variables:           100                                         |
|  Number of clauses:             449                                         |
|  Parse time:                   0.00 s                                       |
|  Eliminated clauses:           0.00 Mb                                      |
|  Simplification time:          0.00 s                                       |
|                                                                             |
============================[ Search Statistics ]==============================
| Conflicts |          ORIGINAL         |          LEARNT          | Progress |
|           |    Vars  Clauses Literals |    Limit  Clauses Lit/Cl |          |
===============================================================================
|       100 |      99      448     1352 |      164      100      6 |  0.011 % |
|       250 |      99      448     1352 |      180      167      5 |  0.060 % |
===============================================================================
restarts              : 4
conflicts             : 400            (100528 /sec)
decisions             : 497            (0.00 % random) (124906 /sec)
propagations          : 9789           (2460166 /sec)
conflict literals     : 2210           (30.76 % deleted)
Memory used           : 13.00 MB
CPU time              : 0.003979 s

SATISFIABLE
